6485120661634145580503,12,1,2,012,1,1,2,06,6,1,2,010,13,1,2,05,11,1,2,09,7,1,2,07,14,1,2,012,12,1,2,014,11,1,2,06,6,1,2,012,9,1,2,03,10,1,2,07,8,1,2,09,2,1,2,012,14,1,2,011,14,1,2,06,12,1,2,02,3,1,2,08,4,1,2,013,5,1,2,06,9,1,2,05,7,1,2,012,4,1,2,02,15,1,2,02,15,1,2,03,7,1,2,015,8,1,2,03,2,1,2,06,3,1,2,08,6,1,2,01,7,1,2,03,5,1,2,012,11,1,2,09,7,1,2,01,13,1,2,04,14,1,2,06,14,1,2,07,10,1,2,02,12,1,2,014,3,1,2,06,12,1,2,011,13,1,2,09,4,1,2,010,14,1,2,012,11,1,2,014,9,1,2,010,13,1,2,013,5,1,2,04,1,1,2,09,8,1,2,0